CapLotSizing_PM/src/Instancias/TCLSHT/25i6p2m/NBA02.OUT
 CG ITER, OVMR, OVMRUB =           1   32480.5312500   32480.5312500
 CG ITER, OVMR, OVMRUB =           2   31176.2949219   31176.2949219
 CG ITER, OVMR, OVMRUB =           3   31176.2910156   31176.2949219
 CG ITER, OVMR, OVMRUB =           4   30588.1562500   31176.2949219
 CG ITER, OVMR, OVMRUB =           5   29489.4140625   31176.2949219
 CG ITER, OVMR, OVMRUB =           6   29324.0566406   31176.2949219
 CG ITER, OVMR, OVMRUB =           7   29250.7773438   31176.2949219
 CG ITER, OVMR, OVMRUB =           8   29186.1425781   31176.2949219
 CG ITER, OVMR, OVMRUB =           9   29113.5527344   31176.2949219
 CG ITER, OVMR, OVMRUB =          10   29053.6425781   31176.2949219
 CG ITER, OVMR, OVMRUB =          11   29021.6250000   31176.2949219
 CG ITER, OVMR, OVMRUB =          12   28996.4511719   31138.1289062
 CG ITER, OVMR, OVMRUB =          13   28958.6367188   31138.1289062
 CG ITER, OVMR, OVMRUB =          14   28933.9335938   31138.1289062
 CG ITER, OVMR, OVMRUB =          15   28897.5312500   30715.7988281
 CG ITER, OVMR, OVMRUB =          16   28871.0273438   30715.7988281
 CG ITER, OVMR, OVMRUB =          17   28849.0781250   30715.7988281
 CG ITER, OVMR, OVMRUB =          18   28813.1113281   30715.7988281
 CG ITER, OVMR, OVMRUB =          19   28793.7363281   30715.7988281
 CG ITER, OVMR, OVMRUB =          20   28769.3066406   30468.4414062
 CG ITER, OVMR, OVMRUB =          21   28750.0488281   30468.4414062
 CG ITER, OVMR, OVMRUB =          22   28722.8242188   30468.4414062
 CG ITER, OVMR, OVMRUB =          23   28699.3066406   30468.4414062
 CG ITER, OVMR, OVMRUB =          24   28679.6113281   30468.4414062
 CG ITER, OVMR, OVMRUB =          25   28664.7480469   30468.4414062
 CG ITER, OVMR, OVMRUB =          26   28644.3769531   30468.4414062
 CG ITER, OVMR, OVMRUB =          27   28637.7050781   30468.4414062
 CG ITER, OVMR, OVMRUB =          28   28624.5156250   30468.4414062
 CG ITER, OVMR, OVMRUB =          29   28612.5351562   30468.4414062
 CG ITER, OVMR, OVMRUB =          30   28598.2324219   30468.4414062
 CG ITER, OVMR, OVMRUB =          31   28593.5312500   30468.4414062
 CG ITER, OVMR, OVMRUB =          32   28583.3164062   30468.4414062
 CG ITER, OVMR, OVMRUB =          33   28574.0332031   30447.7500000
 CG ITER, OVMR, OVMRUB =          34   28565.9589844   30289.6894531
 CG ITER, OVMR, OVMRUB =          35   28561.0742188   30289.6894531
 CG ITER, OVMR, OVMRUB =          36   28548.3378906   30289.6894531
 CG ITER, OVMR, OVMRUB =          37   28538.7207031   30289.6894531
 CG ITER, OVMR, OVMRUB =          38   28533.5527344   30289.6894531
 CG ITER, OVMR, OVMRUB =          39   28521.3164062   30289.6894531
 CG ITER, OVMR, OVMRUB =          40   28514.8535156   30289.6894531
 CG ITER, OVMR, OVMRUB =          41   28507.6132812   30171.2050781
 CG ITER, OVMR, OVMRUB =          42   28501.0585938   30106.2441406
 CG ITER, OVMR, OVMRUB =          43   28493.9316406   30106.2441406
 CG ITER, OVMR, OVMRUB =          44   28489.3496094   30106.2441406
 CG ITER, OVMR, OVMRUB =          45   28480.4238281   29862.0039062
 CG ITER, OVMR, OVMRUB =          46   28476.4023438   29862.0039062
 CG ITER, OVMR, OVMRUB =          47   28470.1347656   29457.5097656
 CG ITER, OVMR, OVMRUB =          48   28464.3281250   29457.5097656
 CG ITER, OVMR, OVMRUB =          49   28460.5957031   29457.5097656
 CG ITER, OVMR, OVMRUB =          50   28457.6621094   29457.5097656
 CG ITER, OVMR, OVMRUB =          51   28456.3066406   29457.5097656
 CG ITER, OVMR, OVMRUB =          52   28454.8242188   29457.5097656
 CG ITER, OVMR, OVMRUB =          53   28451.1660156   29457.5097656
 CG ITER, OVMR, OVMRUB =          54   28448.7343750   29457.5097656
 CG ITER, OVMR, OVMRUB =          55   28447.3027344   29457.5097656
 CG ITER, OVMR, OVMRUB =          56   28442.6660156   29457.5097656
 CG ITER, OVMR, OVMRUB =          57   28439.2851562   29457.5097656
 CG ITER, OVMR, OVMRUB =          58   28437.1445312   29457.5097656
 CG ITER, OVMR, OVMRUB =          59   28433.4238281   29457.5097656
 CG ITER, OVMR, OVMRUB =          60   28432.6757812   29457.5097656
 CG ITER, OVMR, OVMRUB =          61   28432.7695312   29457.5097656
 CG ITER, OVMR, OVMRUB =          62   28432.3925781   29457.5097656
 CG ITER, OVMR, OVMRUB =          63   28431.9082031   29457.5097656
 CG ITER, OVMR, OVMRUB =          64   28431.2753906   29457.5097656
 CG ITER, OVMR, OVMRUB =          65   28431.2792969   29457.5097656
 CG ITER, OVMR, OVMRUB =          66   28430.9746094   29287.7031250
 CG ITER, OVMR, OVMRUB =          67   28431.0332031   29287.7031250
 CG ITER, OVMR, OVMRUB =          68   28430.8925781   29287.7031250
 CG ITER, OVMR, OVMRUB =          69   28431.1210938   29287.7031250
 CG ITER, OVMR, OVMRUB =          70   28431.3769531   29287.5644531
 CG ITER, OVMR, OVMRUB =          71   28430.4121094   29287.5644531
 CG ITER, OVMR, OVMRUB =          72   28430.9121094   29287.5644531
 CG ITER, OVMR, OVMRUB =          73   28430.5566406   29287.5644531
 CG ITER, OVMR, OVMRUB =          74   28430.7148438   29029.6972656
 CG ITER, OVMR, OVMRUB =          75   28430.5644531   29029.6972656
 CG ITER, OVMR, OVMRUB =          76   28430.7363281   29029.6972656
 CG ITER, OVMR, OVMRUB =          77   28430.3476562   29029.6972656
 CG ITER, OVMR, OVMRUB =          78   28430.5878906   28907.7812500
 CG ITER, OVMR, OVMRUB =          79   28430.7714844   28907.7812500
 CG ITER, OVMR, OVMRUB =          80   28430.6523438   28907.7812500
 CG ITER, OVMR, OVMRUB =          81   28430.6738281   28907.7812500
 CG ITER, OVMR, OVMRUB =          82   28430.6738281   28809.9863281
OVLB =   28430.6738281 OVLUB =   28809.9863281 TIME =      48.1899986
